n_res = 4;
rcap = [13, 17, 95, 89];
rtype = [1, 1, 2, 2];
n_tasks = 16;
modes = [ {1, 2, 3, 4}, {5, 6, 7, 8}, {9, 10, 11, 12}, {13, 14, 15, 16}, {17, 18, 19, 20}, {21, 22, 23, 24}, {25, 26, 27, 28}, {29, 30, 31, 32}, {33, 34, 35, 36}, {37, 38, 39, 40}, {41, 42, 43, 44}, {45, 46, 47, 48}, {49, 50, 51, 52}, {53, 54, 55, 56}, {57, 58, 59, 60}, {61, 62, 63, 64} ];
succ = [ {7, 8, 10}, {4, 11, 13}, {7, 10, 12}, {5, 6, 10}, {12, 15}, {7, 12}, {14, 15}, {9, 13}, {11, 15, 16}, {14}, {14}, {16}, {16}, {}, {}, {} ];
n_opt = 64;
dur = [1, 1, 2, 6, 3, 6, 6, 8, 1, 3, 4, 9, 1, 2, 4, 8, 1, 1, 1, 3, 1, 3, 7, 7, 4, 6, 6, 8, 3, 7, 7, 7, 3, 6, 7, 8, 7, 7, 9, 10, 4, 6, 6, 9, 1, 2, 3, 7, 2, 6, 7, 9, 2, 6, 8, 10, 2, 2, 7, 10, 1, 2, 7, 8];
rreq = [|  8,  7,  5,  3,  0,  0,  0,  0,  0,  7,  0,  0,  9,  8,  7,  6,  0,  5,  0,  0,  0,  0,  2,  0,  0,  0,  4,  0,  4,  4,  0,  4,  0,  4,  0,  3,  0,  0,  0,  0,  0,  0,  4,  1,  8,  0,  0,  6,  9,  0,  7,  0,  0,  8,  0,  4,  0,  6,  0,  0,  0,  5,  0,  0
        |  0,  0,  0,  0,  8,  6,  7,  5,  3,  0,  3,  3,  0,  0,  0,  0,  8,  0,  9,  6,  6,  6,  0,  6,  9,  6,  0,  6,  0,  0,  6,  0,  7,  0,  6,  0,  6,  6,  6,  3,  4,  3,  0,  0,  0,  7,  6,  0,  0,  7,  0,  3,  6,  0,  4,  0,  2,  0,  2,  2, 10,  0,  7,  5
        |  8,  6,  5,  4,  9,  7,  4,  4,  7,  6,  6,  5, 10, 10,  9,  9,  4,  4,  4,  4,  7,  6,  5,  6, 10, 10, 10,  9,  5,  4,  4,  5,  5,  5,  4,  4,  7,  6,  6,  4,  6,  6,  6,  6,  5,  4,  4,  3, 10,  7,  4,  2,  4,  3,  2,  1, 10, 10, 10, 10,  6,  6,  4,  3
        |  6,  7,  5,  4,  9,  5,  4,  1,  7,  6,  3,  3, 10, 10,  9,  9,  5,  4,  4,  3,  4,  4,  3,  3,  8,  8,  7,  3,  5,  4,  4,  3,  7,  6,  6,  5,  8,  9,  8,  7,  3,  3,  3,  2,  6,  5,  4,  2,  8,  7,  7,  5,  4,  4,  4,  3,  8,  7,  6,  5, 10, 10,  9,  9 |];
